Traveling Salesman Problem/TSP_generados/Aleatorio1621103673_17.tsp
NAME: Aleatorio1621103673_17.tsp
COMMENT: Randomly generated scenario
TYPE: TSP
DIMENSION: 17
EDGE_WEIGHT_TYPE: ATT
NODE_COORD_SECTION
1 13.68 2.62
2 46.39 18.95
3 14.39 13.85
4 5.42 12.79
5 19.34 9.49
6 42.56 4.65
7 46.53 10.17
8 9.13 25.13
9 21.94 2.99
10 13.98 5.56
11 44.42 13.1
12 36.15 33.73
13 19.37 0.21
14 10.67 31.15
15 47.1 32.28
16 27.83 8.51
17 7.85 17.89
