Traveling Salesman Problem/TSP_generados/Aleatorio1621103673_17.opt.tour
NAME: Aleatorio1621103673_17.opt.tour
COMMENT: Optimal solution for Aleatorio1621103673_17 (144.29846599864362)
TYPE: TOUR
DIMENSION: 17
TOUR_SECTION
1 13 9 16 6 7 11 2 15 12 14 8 17 4 3 5 10
-1
EOF
